sat
(model 
  (define-fun p ((x!0 Int) (x!1 Int)) Bool
    (or (and (= x!0 3) (= x!1 1))
        (and (= x!0 2) (= x!1 4))
        (and (= x!0 1) (= x!1 2))
        (and (= x!0 4) (= x!1 3))))
)
